* #variable= 209 #constraint= 801
1 x0_0 1 x0_1 1 x0_2 1 x0_3 1 x0_4 1 x0_5 1 x0_6 1 x0_7 1 x0_8 1 x0_9 1 x0_10 1 x0_11 1 x0_12 1 x0_13 1 x0_14 1 x0_15 1 x0_16 1 x0_17 1 x0_18 >= 1 ;
-1 x0_0 -1 x0_1 -1 x0_2 -1 x0_3 -1 x0_4 -1 x0_5 -1 x0_6 -1 x0_7 -1 x0_8 -1 x0_9 -1 x0_10 -1 x0_11 -1 x0_12 -1 x0_13 -1 x0_14 -1 x0_15 -1 x0_16 -1 x0_17 -1 x0_18 >= -1 ;
1 x1_0 1 x1_1 1 x1_2 1 x1_3 1 x1_4 1 x1_5 1 x1_6 1 x1_7 1 x1_8 1 x1_9 1 x1_10 1 x1_11 1 x1_12 1 x1_13 1 x1_14 1 x1_15 1 x1_16 1 x1_17 1 x1_18 >= 1 ;
-1 x1_0 -1 x1_1 -1 x1_2 -1 x1_3 -1 x1_4 -1 x1_5 -1 x1_6 -1 x1_7 -1 x1_8 -1 x1_9 -1 x1_10 -1 x1_11 -1 x1_12 -1 x1_13 -1 x1_14 -1 x1_15 -1 x1_16 -1 x1_17 -1 x1_18 >= -1 ;
1 x2_0 1 x2_1 1 x2_2 1 x2_3 1 x2_4 1 x2_5 1 x2_6 1 x2_7 1 x2_8 1 x2_9 1 x2_10 1 x2_11 1 x2_12 1 x2_13 1 x2_14 1 x2_15 1 x2_16 1 x2_17 1 x2_18 >= 1 ;
-1 x2_0 -1 x2_1 -1 x2_2 -1 x2_3 -1 x2_4 -1 x2_5 -1 x2_6 -1 x2_7 -1 x2_8 -1 x2_9 -1 x2_10 -1 x2_11 -1 x2_12 -1 x2_13 -1 x2_14 -1 x2_15 -1 x2_16 -1 x2_17 -1 x2_18 >= -1 ;
1 x3_0 1 x3_1 1 x3_2 1 x3_3 1 x3_4 1 x3_5 1 x3_6 1 x3_7 1 x3_8 1 x3_9 1 x3_10 1 x3_11 1 x3_12 1 x3_13 1 x3_14 1 x3_15 1 x3_16 1 x3_17 1 x3_18 >= 1 ;
-1 x3_0 -1 x3_1 -1 x3_2 -1 x3_3 -1 x3_4 -1 x3_5 -1 x3_6 -1 x3_7 -1 x3_8 -1 x3_9 -1 x3_10 -1 x3_11 -1 x3_12 -1 x3_13 -1 x3_14 -1 x3_15 -1 x3_16 -1 x3_17 -1 x3_18 >= -1 ;
1 x4_0 1 x4_1 1 x4_2 1 x4_3 1 x4_4 1 x4_5 1 x4_6 1 x4_7 1 x4_8 1 x4_9 1 x4_10 1 x4_11 1 x4_12 1 x4_13 1 x4_14 1 x4_15 1 x4_16 1 x4_17 1 x4_18 >= 1 ;
-1 x4_0 -1 x4_1 -1 x4_2 -1 x4_3 -1 x4_4 -1 x4_5 -1 x4_6 -1 x4_7 -1 x4_8 -1 x4_9 -1 x4_10 -1 x4_11 -1 x4_12 -1 x4_13 -1 x4_14 -1 x4_15 -1 x4_16 -1 x4_17 -1 x4_18 >= -1 ;
1 x5_0 1 x5_1 1 x5_2 1 x5_3 1 x5_4 1 x5_5 1 x5_6 1 x5_7 1 x5_8 1 x5_9 1 x5_10 1 x5_11 1 x5_12 1 x5_13 1 x5_14 1 x5_15 1 x5_16 1 x5_17 1 x5_18 >= 1 ;
-1 x5_0 -1 x5_1 -1 x5_2 -1 x5_3 -1 x5_4 -1 x5_5 -1 x5_6 -1 x5_7 -1 x5_8 -1 x5_9 -1 x5_10 -1 x5_11 -1 x5_12 -1 x5_13 -1 x5_14 -1 x5_15 -1 x5_16 -1 x5_17 -1 x5_18 >= -1 ;
1 x6_0 1 x6_1 1 x6_2 1 x6_3 1 x6_4 1 x6_5 1 x6_6 1 x6_7 1 x6_8 1 x6_9 1 x6_10 1 x6_11 1 x6_12 1 x6_13 1 x6_14 1 x6_15 1 x6_16 1 x6_17 1 x6_18 >= 1 ;
-1 x6_0 -1 x6_1 -1 x6_2 -1 x6_3 -1 x6_4 -1 x6_5 -1 x6_6 -1 x6_7 -1 x6_8 -1 x6_9 -1 x6_10 -1 x6_11 -1 x6_12 -1 x6_13 -1 x6_14 -1 x6_15 -1 x6_16 -1 x6_17 -1 x6_18 >= -1 ;
1 x7_0 1 x7_1 1 x7_2 1 x7_3 1 x7_4 1 x7_5 1 x7_6 1 x7_7 1 x7_8 1 x7_9 1 x7_10 1 x7_11 1 x7_12 1 x7_13 1 x7_14 1 x7_15 1 x7_16 1 x7_17 1 x7_18 >= 1 ;
-1 x7_0 -1 x7_1 -1 x7_2 -1 x7_3 -1 x7_4 -1 x7_5 -1 x7_6 -1 x7_7 -1 x7_8 -1 x7_9 -1 x7_10 -1 x7_11 -1 x7_12 -1 x7_13 -1 x7_14 -1 x7_15 -1 x7_16 -1 x7_17 -1 x7_18 >= -1 ;
1 x8_0 1 x8_1 1 x8_2 1 x8_3 1 x8_4 1 x8_5 1 x8_6 1 x8_7 1 x8_8 1 x8_9 1 x8_10 1 x8_11 1 x8_12 1 x8_13 1 x8_14 1 x8_15 1 x8_16 1 x8_17 1 x8_18 >= 1 ;
-1 x8_0 -1 x8_1 -1 x8_2 -1 x8_3 -1 x8_4 -1 x8_5 -1 x8_6 -1 x8_7 -1 x8_8 -1 x8_9 -1 x8_10 -1 x8_11 -1 x8_12 -1 x8_13 -1 x8_14 -1 x8_15 -1 x8_16 -1 x8_17 -1 x8_18 >= -1 ;
1 x9_0 1 x9_1 1 x9_2 1 x9_3 1 x9_4 1 x9_5 1 x9_6 1 x9_7 1 x9_8 1 x9_9 1 x9_10 1 x9_11 1 x9_12 1 x9_13 1 x9_14 1 x9_15 1 x9_16 1 x9_17 1 x9_18 >= 1 ;
-1 x9_0 -1 x9_1 -1 x9_2 -1 x9_3 -1 x9_4 -1 x9_5 -1 x9_6 -1 x9_7 -1 x9_8 -1 x9_9 -1 x9_10 -1 x9_11 -1 x9_12 -1 x9_13 -1 x9_14 -1 x9_15 -1 x9_16 -1 x9_17 -1 x9_18 >= -1 ;
1 x10_0 1 x10_1 1 x10_2 1 x10_3 1 x10_4 1 x10_5 1 x10_6 1 x10_7 1 x10_8 1 x10_9 1 x10_10 1 x10_11 1 x10_12 1 x10_13 1 x10_14 1 x10_15 1 x10_16 1 x10_17 1 x10_18 >= 1 ;
-1 x10_0 -1 x10_1 -1 x10_2 -1 x10_3 -1 x10_4 -1 x10_5 -1 x10_6 -1 x10_7 -1 x10_8 -1 x10_9 -1 x10_10 -1 x10_11 -1 x10_12 -1 x10_13 -1 x10_14 -1 x10_15 -1 x10_16 -1 x10_17 -1 x10_18 >= -1 ;
-1 x0_0 -1 x1_0 -1 x2_0 -1 x3_0 -1 x4_0 -1 x5_0 -1 x6_0 -1 x7_0 -1 x8_0 -1 x9_0 -1 x10_0 >= -1 ;
-1 x0_1 -1 x1_1 -1 x2_1 -1 x3_1 -1 x4_1 -1 x5_1 -1 x6_1 -1 x7_1 -1 x8_1 -1 x9_1 -1 x10_1 >= -1 ;
-1 x0_2 -1 x1_2 -1 x2_2 -1 x3_2 -1 x4_2 -1 x5_2 -1 x6_2 -1 x7_2 -1 x8_2 -1 x9_2 -1 x10_2 >= -1 ;
-1 x0_3 -1 x1_3 -1 x2_3 -1 x3_3 -1 x4_3 -1 x5_3 -1 x6_3 -1 x7_3 -1 x8_3 -1 x9_3 -1 x10_3 >= -1 ;
-1 x0_4 -1 x1_4 -1 x2_4 -1 x3_4 -1 x4_4 -1 x5_4 -1 x6_4 -1 x7_4 -1 x8_4 -1 x9_4 -1 x10_4 >= -1 ;
-1 x0_5 -1 x1_5 -1 x2_5 -1 x3_5 -1 x4_5 -1 x5_5 -1 x6_5 -1 x7_5 -1 x8_5 -1 x9_5 -1 x10_5 >= -1 ;
-1 x0_6 -1 x1_6 -1 x2_6 -1 x3_6 -1 x4_6 -1 x5_6 -1 x6_6 -1 x7_6 -1 x8_6 -1 x9_6 -1 x10_6 >= -1 ;
-1 x0_7 -1 x1_7 -1 x2_7 -1 x3_7 -1 x4_7 -1 x5_7 -1 x6_7 -1 x7_7 -1 x8_7 -1 x9_7 -1 x10_7 >= -1 ;
-1 x0_8 -1 x1_8 -1 x2_8 -1 x3_8 -1 x4_8 -1 x5_8 -1 x6_8 -1 x7_8 -1 x8_8 -1 x9_8 -1 x10_8 >= -1 ;
-1 x0_9 -1 x1_9 -1 x2_9 -1 x3_9 -1 x4_9 -1 x5_9 -1 x6_9 -1 x7_9 -1 x8_9 -1 x9_9 -1 x10_9 >= -1 ;
-1 x0_10 -1 x1_10 -1 x2_10 -1 x3_10 -1 x4_10 -1 x5_10 -1 x6_10 -1 x7_10 -1 x8_10 -1 x9_10 -1 x10_10 >= -1 ;
-1 x0_11 -1 x1_11 -1 x2_11 -1 x3_11 -1 x4_11 -1 x5_11 -1 x6_11 -1 x7_11 -1 x8_11 -1 x9_11 -1 x10_11 >= -1 ;
-1 x0_12 -1 x1_12 -1 x2_12 -1 x3_12 -1 x4_12 -1 x5_12 -1 x6_12 -1 x7_12 -1 x8_12 -1 x9_12 -1 x10_12 >= -1 ;
-1 x0_13 -1 x1_13 -1 x2_13 -1 x3_13 -1 x4_13 -1 x5_13 -1 x6_13 -1 x7_13 -1 x8_13 -1 x9_13 -1 x10_13 >= -1 ;
-1 x0_14 -1 x1_14 -1 x2_14 -1 x3_14 -1 x4_14 -1 x5_14 -1 x6_14 -1 x7_14 -1 x8_14 -1 x9_14 -1 x10_14 >= -1 ;
-1 x0_15 -1 x1_15 -1 x2_15 -1 x3_15 -1 x4_15 -1 x5_15 -1 x6_15 -1 x7_15 -1 x8_15 -1 x9_15 -1 x10_15 >= -1 ;
-1 x0_16 -1 x1_16 -1 x2_16 -1 x3_16 -1 x4_16 -1 x5_16 -1 x6_16 -1 x7_16 -1 x8_16 -1 x9_16 -1 x10_16 >= -1 ;
-1 x0_17 -1 x1_17 -1 x2_17 -1 x3_17 -1 x4_17 -1 x5_17 -1 x6_17 -1 x7_17 -1 x8_17 -1 x9_17 -1 x10_17 >= -1 ;
-1 x0_18 -1 x1_18 -1 x2_18 -1 x3_18 -1 x4_18 -1 x5_18 -1 x6_18 -1 x7_18 -1 x8_18 -1 x9_18 -1 x10_18 >= -1 ;
1 ~x0_0 1 x1_1 >= 1 ;
1 ~x0_0 1 x2_1 >= 1 ;
1 ~x0_0 1 x3_1 >= 1 ;
1 ~x0_0 1 x4_1 >= 1 ;
1 ~x0_0 1 x5_1 >= 1 ;
1 ~x0_0 1 x6_1 >= 1 ;
1 ~x0_0 1 x7_1 >= 1 ;
1 ~x0_0 1 x8_1 >= 1 ;
1 ~x0_0 1 x9_1 >= 1 ;
1 ~x0_0 1 x10_1 >= 1 ;
1 ~x0_1 1 x1_0 1 x1_2 1 x1_3 1 x1_5 1 x1_6 1 x1_7 1 x1_13 >= 1 ;
1 ~x0_1 1 x2_0 1 x2_2 1 x2_3 1 x2_5 1 x2_6 1 x2_7 1 x2_13 >= 1 ;
1 ~x0_1 1 x3_0 1 x3_2 1 x3_3 1 x3_5 1 x3_6 1 x3_7 1 x3_13 >= 1 ;
1 ~x0_1 1 x4_0 1 x4_2 1 x4_3 1 x4_5 1 x4_6 1 x4_7 1 x4_13 >= 1 ;
1 ~x0_1 1 x5_0 1 x5_2 1 x5_3 1 x5_5 1 x5_6 1 x5_7 1 x5_13 >= 1 ;
1 ~x0_1 1 x6_0 1 x6_2 1 x6_3 1 x6_5 1 x6_6 1 x6_7 1 x6_13 >= 1 ;
1 ~x0_1 1 x7_0 1 x7_2 1 x7_3 1 x7_5 1 x7_6 1 x7_7 1 x7_13 >= 1 ;
1 ~x0_1 1 x8_0 1 x8_2 1 x8_3 1 x8_5 1 x8_6 1 x8_7 1 x8_13 >= 1 ;
1 ~x0_1 1 x9_0 1 x9_2 1 x9_3 1 x9_5 1 x9_6 1 x9_7 1 x9_13 >= 1 ;
1 ~x0_1 1 x10_0 1 x10_2 1 x10_3 1 x10_5 1 x10_6 1 x10_7 1 x10_13 >= 1 ;
1 ~x0_2 1 x1_1 1 x1_3 1 x1_4 1 x1_8 >= 1 ;
1 ~x0_2 1 x2_1 1 x2_3 1 x2_4 1 x2_8 >= 1 ;
1 ~x0_2 1 x3_1 1 x3_3 1 x3_4 1 x3_8 >= 1 ;
1 ~x0_2 1 x4_1 1 x4_3 1 x4_4 1 x4_8 >= 1 ;
1 ~x0_2 1 x5_1 1 x5_3 1 x5_4 1 x5_8 >= 1 ;
1 ~x0_2 1 x6_1 1 x6_3 1 x6_4 1 x6_8 >= 1 ;
1 ~x0_2 1 x7_1 1 x7_3 1 x7_4 1 x7_8 >= 1 ;
1 ~x0_2 1 x8_1 1 x8_3 1 x8_4 1 x8_8 >= 1 ;
1 ~x0_2 1 x9_1 1 x9_3 1 x9_4 1 x9_8 >= 1 ;
1 ~x0_2 1 x10_1 1 x10_3 1 x10_4 1 x10_8 >= 1 ;
1 ~x0_3 1 x1_1 1 x1_2 1 x1_7 >= 1 ;
1 ~x0_3 1 x2_1 1 x2_2 1 x2_7 >= 1 ;
1 ~x0_3 1 x3_1 1 x3_2 1 x3_7 >= 1 ;
1 ~x0_3 1 x4_1 1 x4_2 1 x4_7 >= 1 ;
1 ~x0_3 1 x5_1 1 x5_2 1 x5_7 >= 1 ;
1 ~x0_3 1 x6_1 1 x6_2 1 x6_7 >= 1 ;
1 ~x0_3 1 x7_1 1 x7_2 1 x7_7 >= 1 ;
1 ~x0_3 1 x8_1 1 x8_2 1 x8_7 >= 1 ;
1 ~x0_3 1 x9_1 1 x9_2 1 x9_7 >= 1 ;
1 ~x0_3 1 x10_1 1 x10_2 1 x10_7 >= 1 ;
1 ~x0_4 1 x1_2 1 x1_9 1 x1_10 >= 1 ;
1 ~x0_4 1 x2_2 1 x2_9 1 x2_10 >= 1 ;
1 ~x0_4 1 x3_2 1 x3_9 1 x3_10 >= 1 ;
1 ~x0_4 1 x4_2 1 x4_9 1 x4_10 >= 1 ;
1 ~x0_4 1 x5_2 1 x5_9 1 x5_10 >= 1 ;
1 ~x0_4 1 x6_2 1 x6_9 1 x6_10 >= 1 ;
1 ~x0_4 1 x7_2 1 x7_9 1 x7_10 >= 1 ;
1 ~x0_4 1 x8_2 1 x8_9 1 x8_10 >= 1 ;
1 ~x0_4 1 x9_2 1 x9_9 1 x9_10 >= 1 ;
1 ~x0_4 1 x10_2 1 x10_9 1 x10_10 >= 1 ;
1 ~x0_5 1 x1_1 1 x1_6 >= 1 ;
1 ~x0_5 1 x2_1 1 x2_6 >= 1 ;
1 ~x0_5 1 x3_1 1 x3_6 >= 1 ;
1 ~x0_5 1 x4_1 1 x4_6 >= 1 ;
1 ~x0_5 1 x5_1 1 x5_6 >= 1 ;
1 ~x0_5 1 x6_1 1 x6_6 >= 1 ;
1 ~x0_5 1 x7_1 1 x7_6 >= 1 ;
1 ~x0_5 1 x8_1 1 x8_6 >= 1 ;
1 ~x0_5 1 x9_1 1 x9_6 >= 1 ;
1 ~x0_5 1 x10_1 1 x10_6 >= 1 ;
1 ~x0_6 1 x1_1 1 x1_5 1 x1_8 1 x1_11 1 x1_12 >= 1 ;
1 ~x0_6 1 x2_1 1 x2_5 1 x2_8 1 x2_11 1 x2_12 >= 1 ;
1 ~x0_6 1 x3_1 1 x3_5 1 x3_8 1 x3_11 1 x3_12 >= 1 ;
1 ~x0_6 1 x4_1 1 x4_5 1 x4_8 1 x4_11 1 x4_12 >= 1 ;
1 ~x0_6 1 x5_1 1 x5_5 1 x5_8 1 x5_11 1 x5_12 >= 1 ;
1 ~x0_6 1 x6_1 1 x6_5 1 x6_8 1 x6_11 1 x6_12 >= 1 ;
1 ~x0_6 1 x7_1 1 x7_5 1 x7_8 1 x7_11 1 x7_12 >= 1 ;
1 ~x0_6 1 x8_1 1 x8_5 1 x8_8 1 x8_11 1 x8_12 >= 1 ;
1 ~x0_6 1 x9_1 1 x9_5 1 x9_8 1 x9_11 1 x9_12 >= 1 ;
1 ~x0_6 1 x10_1 1 x10_5 1 x10_8 1 x10_11 1 x10_12 >= 1 ;
1 ~x0_7 1 x1_1 1 x1_3 1 x1_8 >= 1 ;
1 ~x0_7 1 x2_1 1 x2_3 1 x2_8 >= 1 ;
1 ~x0_7 1 x3_1 1 x3_3 1 x3_8 >= 1 ;
1 ~x0_7 1 x4_1 1 x4_3 1 x4_8 >= 1 ;
1 ~x0_7 1 x5_1 1 x5_3 1 x5_8 >= 1 ;
1 ~x0_7 1 x6_1 1 x6_3 1 x6_8 >= 1 ;
1 ~x0_7 1 x7_1 1 x7_3 1 x7_8 >= 1 ;
1 ~x0_7 1 x8_1 1 x8_3 1 x8_8 >= 1 ;
1 ~x0_7 1 x9_1 1 x9_3 1 x9_8 >= 1 ;
1 ~x0_7 1 x10_1 1 x10_3 1 x10_8 >= 1 ;
1 ~x0_8 1 x1_2 1 x1_6 1 x1_7 1 x1_9 1 x1_10 1 x1_13 1 x1_14 1 x1_15 1 x1_17 1 x1_18 >= 1 ;
1 ~x0_8 1 x2_2 1 x2_6 1 x2_7 1 x2_9 1 x2_10 1 x2_13 1 x2_14 1 x2_15 1 x2_17 1 x2_18 >= 1 ;
1 ~x0_8 1 x3_2 1 x3_6 1 x3_7 1 x3_9 1 x3_10 1 x3_13 1 x3_14 1 x3_15 1 x3_17 1 x3_18 >= 1 ;
1 ~x0_8 1 x4_2 1 x4_6 1 x4_7 1 x4_9 1 x4_10 1 x4_13 1 x4_14 1 x4_15 1 x4_17 1 x4_18 >= 1 ;
1 ~x0_8 1 x5_2 1 x5_6 1 x5_7 1 x5_9 1 x5_10 1 x5_13 1 x5_14 1 x5_15 1 x5_17 1 x5_18 >= 1 ;
1 ~x0_8 1 x6_2 1 x6_6 1 x6_7 1 x6_9 1 x6_10 1 x6_13 1 x6_14 1 x6_15 1 x6_17 1 x6_18 >= 1 ;
1 ~x0_8 1 x7_2 1 x7_6 1 x7_7 1 x7_9 1 x7_10 1 x7_13 1 x7_14 1 x7_15 1 x7_17 1 x7_18 >= 1 ;
1 ~x0_8 1 x8_2 1 x8_6 1 x8_7 1 x8_9 1 x8_10 1 x8_13 1 x8_14 1 x8_15 1 x8_17 1 x8_18 >= 1 ;
1 ~x0_8 1 x9_2 1 x9_6 1 x9_7 1 x9_9 1 x9_10 1 x9_13 1 x9_14 1 x9_15 1 x9_17 1 x9_18 >= 1 ;
1 ~x0_8 1 x10_2 1 x10_6 1 x10_7 1 x10_9 1 x10_10 1 x10_13 1 x10_14 1 x10_15 1 x10_17 1 x10_18 >= 1 ;
1 ~x0_9 1 x1_4 1 x1_8 >= 1 ;
1 ~x0_9 1 x2_4 1 x2_8 >= 1 ;
1 ~x0_9 1 x3_4 1 x3_8 >= 1 ;
1 ~x0_9 1 x4_4 1 x4_8 >= 1 ;
1 ~x0_9 1 x5_4 1 x5_8 >= 1 ;
1 ~x0_9 1 x6_4 1 x6_8 >= 1 ;
1 ~x0_9 1 x7_4 1 x7_8 >= 1 ;
1 ~x0_9 1 x8_4 1 x8_8 >= 1 ;
1 ~x0_9 1 x9_4 1 x9_8 >= 1 ;
1 ~x0_9 1 x10_4 1 x10_8 >= 1 ;
1 ~x0_10 1 x1_4 1 x1_8 >= 1 ;
1 ~x0_10 1 x2_4 1 x2_8 >= 1 ;
1 ~x0_10 1 x3_4 1 x3_8 >= 1 ;
1 ~x0_10 1 x4_4 1 x4_8 >= 1 ;
1 ~x0_10 1 x5_4 1 x5_8 >= 1 ;
1 ~x0_10 1 x6_4 1 x6_8 >= 1 ;
1 ~x0_10 1 x7_4 1 x7_8 >= 1 ;
1 ~x0_10 1 x8_4 1 x8_8 >= 1 ;
1 ~x0_10 1 x9_4 1 x9_8 >= 1 ;
1 ~x0_10 1 x10_4 1 x10_8 >= 1 ;
1 ~x0_11 1 x1_6 >= 1 ;
1 ~x0_11 1 x2_6 >= 1 ;
1 ~x0_11 1 x3_6 >= 1 ;
1 ~x0_11 1 x4_6 >= 1 ;
1 ~x0_11 1 x5_6 >= 1 ;
1 ~x0_11 1 x6_6 >= 1 ;
1 ~x0_11 1 x7_6 >= 1 ;
1 ~x0_11 1 x8_6 >= 1 ;
1 ~x0_11 1 x9_6 >= 1 ;
1 ~x0_11 1 x10_6 >= 1 ;
1 ~x0_12 1 x1_6 1 x1_13 1 x1_14 1 x1_15 1 x1_16 >= 1 ;
1 ~x0_12 1 x2_6 1 x2_13 1 x2_14 1 x2_15 1 x2_16 >= 1 ;
1 ~x0_12 1 x3_6 1 x3_13 1 x3_14 1 x3_15 1 x3_16 >= 1 ;
1 ~x0_12 1 x4_6 1 x4_13 1 x4_14 1 x4_15 1 x4_16 >= 1 ;
1 ~x0_12 1 x5_6 1 x5_13 1 x5_14 1 x5_15 1 x5_16 >= 1 ;
1 ~x0_12 1 x6_6 1 x6_13 1 x6_14 1 x6_15 1 x6_16 >= 1 ;
1 ~x0_12 1 x7_6 1 x7_13 1 x7_14 1 x7_15 1 x7_16 >= 1 ;
1 ~x0_12 1 x8_6 1 x8_13 1 x8_14 1 x8_15 1 x8_16 >= 1 ;
1 ~x0_12 1 x9_6 1 x9_13 1 x9_14 1 x9_15 1 x9_16 >= 1 ;
1 ~x0_12 1 x10_6 1 x10_13 1 x10_14 1 x10_15 1 x10_16 >= 1 ;
1 ~x0_13 1 x1_1 1 x1_8 1 x1_12 >= 1 ;
1 ~x0_13 1 x2_1 1 x2_8 1 x2_12 >= 1 ;
1 ~x0_13 1 x3_1 1 x3_8 1 x3_12 >= 1 ;
1 ~x0_13 1 x4_1 1 x4_8 1 x4_12 >= 1 ;
1 ~x0_13 1 x5_1 1 x5_8 1 x5_12 >= 1 ;
1 ~x0_13 1 x6_1 1 x6_8 1 x6_12 >= 1 ;
1 ~x0_13 1 x7_1 1 x7_8 1 x7_12 >= 1 ;
1 ~x0_13 1 x8_1 1 x8_8 1 x8_12 >= 1 ;
1 ~x0_13 1 x9_1 1 x9_8 1 x9_12 >= 1 ;
1 ~x0_13 1 x10_1 1 x10_8 1 x10_12 >= 1 ;
1 ~x0_14 1 x1_8 1 x1_12 1 x1_17 >= 1 ;
1 ~x0_14 1 x2_8 1 x2_12 1 x2_17 >= 1 ;
1 ~x0_14 1 x3_8 1 x3_12 1 x3_17 >= 1 ;
1 ~x0_14 1 x4_8 1 x4_12 1 x4_17 >= 1 ;
1 ~x0_14 1 x5_8 1 x5_12 1 x5_17 >= 1 ;
1 ~x0_14 1 x6_8 1 x6_12 1 x6_17 >= 1 ;
1 ~x0_14 1 x7_8 1 x7_12 1 x7_17 >= 1 ;
1 ~x0_14 1 x8_8 1 x8_12 1 x8_17 >= 1 ;
1 ~x0_14 1 x9_8 1 x9_12 1 x9_17 >= 1 ;
1 ~x0_14 1 x10_8 1 x10_12 1 x10_17 >= 1 ;
1 ~x0_15 1 x1_8 1 x1_12 1 x1_16 1 x1_17 >= 1 ;
1 ~x0_15 1 x2_8 1 x2_12 1 x2_16 1 x2_17 >= 1 ;
1 ~x0_15 1 x3_8 1 x3_12 1 x3_16 1 x3_17 >= 1 ;
1 ~x0_15 1 x4_8 1 x4_12 1 x4_16 1 x4_17 >= 1 ;
1 ~x0_15 1 x5_8 1 x5_12 1 x5_16 1 x5_17 >= 1 ;
1 ~x0_15 1 x6_8 1 x6_12 1 x6_16 1 x6_17 >= 1 ;
1 ~x0_15 1 x7_8 1 x7_12 1 x7_16 1 x7_17 >= 1 ;
1 ~x0_15 1 x8_8 1 x8_12 1 x8_16 1 x8_17 >= 1 ;
1 ~x0_15 1 x9_8 1 x9_12 1 x9_16 1 x9_17 >= 1 ;
1 ~x0_15 1 x10_8 1 x10_12 1 x10_16 1 x10_17 >= 1 ;
1 ~x0_16 1 x1_12 1 x1_15 1 x1_17 >= 1 ;
1 ~x0_16 1 x2_12 1 x2_15 1 x2_17 >= 1 ;
1 ~x0_16 1 x3_12 1 x3_15 1 x3_17 >= 1 ;
1 ~x0_16 1 x4_12 1 x4_15 1 x4_17 >= 1 ;
1 ~x0_16 1 x5_12 1 x5_15 1 x5_17 >= 1 ;
1 ~x0_16 1 x6_12 1 x6_15 1 x6_17 >= 1 ;
1 ~x0_16 1 x7_12 1 x7_15 1 x7_17 >= 1 ;
1 ~x0_16 1 x8_12 1 x8_15 1 x8_17 >= 1 ;
1 ~x0_16 1 x9_12 1 x9_15 1 x9_17 >= 1 ;
1 ~x0_16 1 x10_12 1 x10_15 1 x10_17 >= 1 ;
1 ~x0_17 1 x1_8 1 x1_14 1 x1_15 1 x1_16 >= 1 ;
1 ~x0_17 1 x2_8 1 x2_14 1 x2_15 1 x2_16 >= 1 ;
1 ~x0_17 1 x3_8 1 x3_14 1 x3_15 1 x3_16 >= 1 ;
1 ~x0_17 1 x4_8 1 x4_14 1 x4_15 1 x4_16 >= 1 ;
1 ~x0_17 1 x5_8 1 x5_14 1 x5_15 1 x5_16 >= 1 ;
1 ~x0_17 1 x6_8 1 x6_14 1 x6_15 1 x6_16 >= 1 ;
1 ~x0_17 1 x7_8 1 x7_14 1 x7_15 1 x7_16 >= 1 ;
1 ~x0_17 1 x8_8 1 x8_14 1 x8_15 1 x8_16 >= 1 ;
1 ~x0_17 1 x9_8 1 x9_14 1 x9_15 1 x9_16 >= 1 ;
1 ~x0_17 1 x10_8 1 x10_14 1 x10_15 1 x10_16 >= 1 ;
1 ~x0_18 1 x1_8 >= 1 ;
1 ~x0_18 1 x2_8 >= 1 ;
1 ~x0_18 1 x3_8 >= 1 ;
1 ~x0_18 1 x4_8 >= 1 ;
1 ~x0_18 1 x5_8 >= 1 ;
1 ~x0_18 1 x6_8 >= 1 ;
1 ~x0_18 1 x7_8 >= 1 ;
1 ~x0_18 1 x8_8 >= 1 ;
1 ~x0_18 1 x9_8 >= 1 ;
1 ~x0_18 1 x10_8 >= 1 ;
1 ~x1_0 1 x0_1 >= 1 ;
1 ~x1_0 1 x2_1 >= 1 ;
1 ~x1_0 1 x10_1 >= 1 ;
1 ~x1_1 1 x0_0 1 x0_2 1 x0_3 1 x0_5 1 x0_6 1 x0_7 1 x0_13 >= 1 ;
1 ~x1_1 1 x2_0 1 x2_2 1 x2_3 1 x2_5 1 x2_6 1 x2_7 1 x2_13 >= 1 ;
1 ~x1_1 1 x10_0 1 x10_2 1 x10_3 1 x10_5 1 x10_6 1 x10_7 1 x10_13 >= 1 ;
1 ~x1_2 1 x0_1 1 x0_3 1 x0_4 1 x0_8 >= 1 ;
1 ~x1_2 1 x2_1 1 x2_3 1 x2_4 1 x2_8 >= 1 ;
1 ~x1_2 1 x10_1 1 x10_3 1 x10_4 1 x10_8 >= 1 ;
1 ~x1_3 1 x0_1 1 x0_2 1 x0_7 >= 1 ;
1 ~x1_3 1 x2_1 1 x2_2 1 x2_7 >= 1 ;
1 ~x1_3 1 x10_1 1 x10_2 1 x10_7 >= 1 ;
1 ~x1_4 1 x0_2 1 x0_9 1 x0_10 >= 1 ;
1 ~x1_4 1 x2_2 1 x2_9 1 x2_10 >= 1 ;
1 ~x1_4 1 x10_2 1 x10_9 1 x10_10 >= 1 ;
1 ~x1_5 1 x0_1 1 x0_6 >= 1 ;
1 ~x1_5 1 x2_1 1 x2_6 >= 1 ;
1 ~x1_5 1 x10_1 1 x10_6 >= 1 ;
1 ~x1_6 1 x0_1 1 x0_5 1 x0_8 1 x0_11 1 x0_12 >= 1 ;
1 ~x1_6 1 x2_1 1 x2_5 1 x2_8 1 x2_11 1 x2_12 >= 1 ;
1 ~x1_6 1 x10_1 1 x10_5 1 x10_8 1 x10_11 1 x10_12 >= 1 ;
1 ~x1_7 1 x0_1 1 x0_3 1 x0_8 >= 1 ;
1 ~x1_7 1 x2_1 1 x2_3 1 x2_8 >= 1 ;
1 ~x1_7 1 x10_1 1 x10_3 1 x10_8 >= 1 ;
1 ~x1_8 1 x0_2 1 x0_6 1 x0_7 1 x0_9 1 x0_10 1 x0_13 1 x0_14 1 x0_15 1 x0_17 1 x0_18 >= 1 ;
1 ~x1_8 1 x2_2 1 x2_6 1 x2_7 1 x2_9 1 x2_10 1 x2_13 1 x2_14 1 x2_15 1 x2_17 1 x2_18 >= 1 ;
1 ~x1_8 1 x10_2 1 x10_6 1 x10_7 1 x10_9 1 x10_10 1 x10_13 1 x10_14 1 x10_15 1 x10_17 1 x10_18 >= 1 ;
1 ~x1_9 1 x0_4 1 x0_8 >= 1 ;
1 ~x1_9 1 x2_4 1 x2_8 >= 1 ;
1 ~x1_9 1 x10_4 1 x10_8 >= 1 ;
1 ~x1_10 1 x0_4 1 x0_8 >= 1 ;
1 ~x1_10 1 x2_4 1 x2_8 >= 1 ;
1 ~x1_10 1 x10_4 1 x10_8 >= 1 ;
1 ~x1_11 1 x0_6 >= 1 ;
1 ~x1_11 1 x2_6 >= 1 ;
1 ~x1_11 1 x10_6 >= 1 ;
1 ~x1_12 1 x0_6 1 x0_13 1 x0_14 1 x0_15 1 x0_16 >= 1 ;
1 ~x1_12 1 x2_6 1 x2_13 1 x2_14 1 x2_15 1 x2_16 >= 1 ;
1 ~x1_12 1 x10_6 1 x10_13 1 x10_14 1 x10_15 1 x10_16 >= 1 ;
1 ~x1_13 1 x0_1 1 x0_8 1 x0_12 >= 1 ;
1 ~x1_13 1 x2_1 1 x2_8 1 x2_12 >= 1 ;
1 ~x1_13 1 x10_1 1 x10_8 1 x10_12 >= 1 ;
1 ~x1_14 1 x0_8 1 x0_12 1 x0_17 >= 1 ;
1 ~x1_14 1 x2_8 1 x2_12 1 x2_17 >= 1 ;
1 ~x1_14 1 x10_8 1 x10_12 1 x10_17 >= 1 ;
1 ~x1_15 1 x0_8 1 x0_12 1 x0_16 1 x0_17 >= 1 ;
1 ~x1_15 1 x2_8 1 x2_12 1 x2_16 1 x2_17 >= 1 ;
1 ~x1_15 1 x10_8 1 x10_12 1 x10_16 1 x10_17 >= 1 ;
1 ~x1_16 1 x0_12 1 x0_15 1 x0_17 >= 1 ;
1 ~x1_16 1 x2_12 1 x2_15 1 x2_17 >= 1 ;
1 ~x1_16 1 x10_12 1 x10_15 1 x10_17 >= 1 ;
1 ~x1_17 1 x0_8 1 x0_14 1 x0_15 1 x0_16 >= 1 ;
1 ~x1_17 1 x2_8 1 x2_14 1 x2_15 1 x2_16 >= 1 ;
1 ~x1_17 1 x10_8 1 x10_14 1 x10_15 1 x10_16 >= 1 ;
1 ~x1_18 1 x0_8 >= 1 ;
1 ~x1_18 1 x2_8 >= 1 ;
1 ~x1_18 1 x10_8 >= 1 ;
1 ~x2_0 1 x0_1 >= 1 ;
1 ~x2_0 1 x1_1 >= 1 ;
1 ~x2_0 1 x3_1 >= 1 ;
1 ~x2_1 1 x0_0 1 x0_2 1 x0_3 1 x0_5 1 x0_6 1 x0_7 1 x0_13 >= 1 ;
1 ~x2_1 1 x1_0 1 x1_2 1 x1_3 1 x1_5 1 x1_6 1 x1_7 1 x1_13 >= 1 ;
1 ~x2_1 1 x3_0 1 x3_2 1 x3_3 1 x3_5 1 x3_6 1 x3_7 1 x3_13 >= 1 ;
1 ~x2_2 1 x0_1 1 x0_3 1 x0_4 1 x0_8 >= 1 ;
1 ~x2_2 1 x1_1 1 x1_3 1 x1_4 1 x1_8 >= 1 ;
1 ~x2_2 1 x3_1 1 x3_3 1 x3_4 1 x3_8 >= 1 ;
1 ~x2_3 1 x0_1 1 x0_2 1 x0_7 >= 1 ;
1 ~x2_3 1 x1_1 1 x1_2 1 x1_7 >= 1 ;
1 ~x2_3 1 x3_1 1 x3_2 1 x3_7 >= 1 ;
1 ~x2_4 1 x0_2 1 x0_9 1 x0_10 >= 1 ;
1 ~x2_4 1 x1_2 1 x1_9 1 x1_10 >= 1 ;
1 ~x2_4 1 x3_2 1 x3_9 1 x3_10 >= 1 ;
1 ~x2_5 1 x0_1 1 x0_6 >= 1 ;
1 ~x2_5 1 x1_1 1 x1_6 >= 1 ;
1 ~x2_5 1 x3_1 1 x3_6 >= 1 ;
1 ~x2_6 1 x0_1 1 x0_5 1 x0_8 1 x0_11 1 x0_12 >= 1 ;
1 ~x2_6 1 x1_1 1 x1_5 1 x1_8 1 x1_11 1 x1_12 >= 1 ;
1 ~x2_6 1 x3_1 1 x3_5 1 x3_8 1 x3_11 1 x3_12 >= 1 ;
1 ~x2_7 1 x0_1 1 x0_3 1 x0_8 >= 1 ;
1 ~x2_7 1 x1_1 1 x1_3 1 x1_8 >= 1 ;
1 ~x2_7 1 x3_1 1 x3_3 1 x3_8 >= 1 ;
1 ~x2_8 1 x0_2 1 x0_6 1 x0_7 1 x0_9 1 x0_10 1 x0_13 1 x0_14 1 x0_15 1 x0_17 1 x0_18 >= 1 ;
1 ~x2_8 1 x1_2 1 x1_6 1 x1_7 1 x1_9 1 x1_10 1 x1_13 1 x1_14 1 x1_15 1 x1_17 1 x1_18 >= 1 ;
1 ~x2_8 1 x3_2 1 x3_6 1 x3_7 1 x3_9 1 x3_10 1 x3_13 1 x3_14 1 x3_15 1 x3_17 1 x3_18 >= 1 ;
1 ~x2_9 1 x0_4 1 x0_8 >= 1 ;
1 ~x2_9 1 x1_4 1 x1_8 >= 1 ;
1 ~x2_9 1 x3_4 1 x3_8 >= 1 ;
1 ~x2_10 1 x0_4 1 x0_8 >= 1 ;
1 ~x2_10 1 x1_4 1 x1_8 >= 1 ;
1 ~x2_10 1 x3_4 1 x3_8 >= 1 ;
1 ~x2_11 1 x0_6 >= 1 ;
1 ~x2_11 1 x1_6 >= 1 ;
1 ~x2_11 1 x3_6 >= 1 ;
1 ~x2_12 1 x0_6 1 x0_13 1 x0_14 1 x0_15 1 x0_16 >= 1 ;
1 ~x2_12 1 x1_6 1 x1_13 1 x1_14 1 x1_15 1 x1_16 >= 1 ;
1 ~x2_12 1 x3_6 1 x3_13 1 x3_14 1 x3_15 1 x3_16 >= 1 ;
1 ~x2_13 1 x0_1 1 x0_8 1 x0_12 >= 1 ;
1 ~x2_13 1 x1_1 1 x1_8 1 x1_12 >= 1 ;
1 ~x2_13 1 x3_1 1 x3_8 1 x3_12 >= 1 ;
1 ~x2_14 1 x0_8 1 x0_12 1 x0_17 >= 1 ;
1 ~x2_14 1 x1_8 1 x1_12 1 x1_17 >= 1 ;
1 ~x2_14 1 x3_8 1 x3_12 1 x3_17 >= 1 ;
1 ~x2_15 1 x0_8 1 x0_12 1 x0_16 1 x0_17 >= 1 ;
1 ~x2_15 1 x1_8 1 x1_12 1 x1_16 1 x1_17 >= 1 ;
1 ~x2_15 1 x3_8 1 x3_12 1 x3_16 1 x3_17 >= 1 ;
1 ~x2_16 1 x0_12 1 x0_15 1 x0_17 >= 1 ;
1 ~x2_16 1 x1_12 1 x1_15 1 x1_17 >= 1 ;
1 ~x2_16 1 x3_12 1 x3_15 1 x3_17 >= 1 ;
1 ~x2_17 1 x0_8 1 x0_14 1 x0_15 1 x0_16 >= 1 ;
1 ~x2_17 1 x1_8 1 x1_14 1 x1_15 1 x1_16 >= 1 ;
1 ~x2_17 1 x3_8 1 x3_14 1 x3_15 1 x3_16 >= 1 ;
1 ~x2_18 1 x0_8 >= 1 ;
1 ~x2_18 1 x1_8 >= 1 ;
1 ~x2_18 1 x3_8 >= 1 ;
1 ~x3_0 1 x0_1 >= 1 ;
1 ~x3_0 1 x2_1 >= 1 ;
1 ~x3_0 1 x4_1 >= 1 ;
1 ~x3_1 1 x0_0 1 x0_2 1 x0_3 1 x0_5 1 x0_6 1 x0_7 1 x0_13 >= 1 ;
1 ~x3_1 1 x2_0 1 x2_2 1 x2_3 1 x2_5 1 x2_6 1 x2_7 1 x2_13 >= 1 ;
1 ~x3_1 1 x4_0 1 x4_2 1 x4_3 1 x4_5 1 x4_6 1 x4_7 1 x4_13 >= 1 ;
1 ~x3_2 1 x0_1 1 x0_3 1 x0_4 1 x0_8 >= 1 ;
1 ~x3_2 1 x2_1 1 x2_3 1 x2_4 1 x2_8 >= 1 ;
1 ~x3_2 1 x4_1 1 x4_3 1 x4_4 1 x4_8 >= 1 ;
1 ~x3_3 1 x0_1 1 x0_2 1 x0_7 >= 1 ;
1 ~x3_3 1 x2_1 1 x2_2 1 x2_7 >= 1 ;
1 ~x3_3 1 x4_1 1 x4_2 1 x4_7 >= 1 ;
1 ~x3_4 1 x0_2 1 x0_9 1 x0_10 >= 1 ;
1 ~x3_4 1 x2_2 1 x2_9 1 x2_10 >= 1 ;
1 ~x3_4 1 x4_2 1 x4_9 1 x4_10 >= 1 ;
1 ~x3_5 1 x0_1 1 x0_6 >= 1 ;
1 ~x3_5 1 x2_1 1 x2_6 >= 1 ;
1 ~x3_5 1 x4_1 1 x4_6 >= 1 ;
1 ~x3_6 1 x0_1 1 x0_5 1 x0_8 1 x0_11 1 x0_12 >= 1 ;
1 ~x3_6 1 x2_1 1 x2_5 1 x2_8 1 x2_11 1 x2_12 >= 1 ;
1 ~x3_6 1 x4_1 1 x4_5 1 x4_8 1 x4_11 1 x4_12 >= 1 ;
1 ~x3_7 1 x0_1 1 x0_3 1 x0_8 >= 1 ;
1 ~x3_7 1 x2_1 1 x2_3 1 x2_8 >= 1 ;
1 ~x3_7 1 x4_1 1 x4_3 1 x4_8 >= 1 ;
1 ~x3_8 1 x0_2 1 x0_6 1 x0_7 1 x0_9 1 x0_10 1 x0_13 1 x0_14 1 x0_15 1 x0_17 1 x0_18 >= 1 ;
1 ~x3_8 1 x2_2 1 x2_6 1 x2_7 1 x2_9 1 x2_10 1 x2_13 1 x2_14 1 x2_15 1 x2_17 1 x2_18 >= 1 ;
1 ~x3_8 1 x4_2 1 x4_6 1 x4_7 1 x4_9 1 x4_10 1 x4_13 1 x4_14 1 x4_15 1 x4_17 1 x4_18 >= 1 ;
1 ~x3_9 1 x0_4 1 x0_8 >= 1 ;
1 ~x3_9 1 x2_4 1 x2_8 >= 1 ;
1 ~x3_9 1 x4_4 1 x4_8 >= 1 ;
1 ~x3_10 1 x0_4 1 x0_8 >= 1 ;
1 ~x3_10 1 x2_4 1 x2_8 >= 1 ;
1 ~x3_10 1 x4_4 1 x4_8 >= 1 ;
1 ~x3_11 1 x0_6 >= 1 ;
1 ~x3_11 1 x2_6 >= 1 ;
1 ~x3_11 1 x4_6 >= 1 ;
1 ~x3_12 1 x0_6 1 x0_13 1 x0_14 1 x0_15 1 x0_16 >= 1 ;
1 ~x3_12 1 x2_6 1 x2_13 1 x2_14 1 x2_15 1 x2_16 >= 1 ;
1 ~x3_12 1 x4_6 1 x4_13 1 x4_14 1 x4_15 1 x4_16 >= 1 ;
1 ~x3_13 1 x0_1 1 x0_8 1 x0_12 >= 1 ;
1 ~x3_13 1 x2_1 1 x2_8 1 x2_12 >= 1 ;
1 ~x3_13 1 x4_1 1 x4_8 1 x4_12 >= 1 ;
1 ~x3_14 1 x0_8 1 x0_12 1 x0_17 >= 1 ;
1 ~x3_14 1 x2_8 1 x2_12 1 x2_17 >= 1 ;
1 ~x3_14 1 x4_8 1 x4_12 1 x4_17 >= 1 ;
1 ~x3_15 1 x0_8 1 x0_12 1 x0_16 1 x0_17 >= 1 ;
1 ~x3_15 1 x2_8 1 x2_12 1 x2_16 1 x2_17 >= 1 ;
1 ~x3_15 1 x4_8 1 x4_12 1 x4_16 1 x4_17 >= 1 ;
1 ~x3_16 1 x0_12 1 x0_15 1 x0_17 >= 1 ;
1 ~x3_16 1 x2_12 1 x2_15 1 x2_17 >= 1 ;
1 ~x3_16 1 x4_12 1 x4_15 1 x4_17 >= 1 ;
1 ~x3_17 1 x0_8 1 x0_14 1 x0_15 1 x0_16 >= 1 ;
1 ~x3_17 1 x2_8 1 x2_14 1 x2_15 1 x2_16 >= 1 ;
1 ~x3_17 1 x4_8 1 x4_14 1 x4_15 1 x4_16 >= 1 ;
1 ~x3_18 1 x0_8 >= 1 ;
1 ~x3_18 1 x2_8 >= 1 ;
1 ~x3_18 1 x4_8 >= 1 ;
1 ~x4_0 1 x0_1 >= 1 ;
1 ~x4_0 1 x3_1 >= 1 ;
1 ~x4_0 1 x5_1 >= 1 ;
1 ~x4_1 1 x0_0 1 x0_2 1 x0_3 1 x0_5 1 x0_6 1 x0_7 1 x0_13 >= 1 ;
1 ~x4_1 1 x3_0 1 x3_2 1 x3_3 1 x3_5 1 x3_6 1 x3_7 1 x3_13 >= 1 ;
1 ~x4_1 1 x5_0 1 x5_2 1 x5_3 1 x5_5 1 x5_6 1 x5_7 1 x5_13 >= 1 ;
1 ~x4_2 1 x0_1 1 x0_3 1 x0_4 1 x0_8 >= 1 ;
1 ~x4_2 1 x3_1 1 x3_3 1 x3_4 1 x3_8 >= 1 ;
1 ~x4_2 1 x5_1 1 x5_3 1 x5_4 1 x5_8 >= 1 ;
1 ~x4_3 1 x0_1 1 x0_2 1 x0_7 >= 1 ;
1 ~x4_3 1 x3_1 1 x3_2 1 x3_7 >= 1 ;
1 ~x4_3 1 x5_1 1 x5_2 1 x5_7 >= 1 ;
1 ~x4_4 1 x0_2 1 x0_9 1 x0_10 >= 1 ;
1 ~x4_4 1 x3_2 1 x3_9 1 x3_10 >= 1 ;
1 ~x4_4 1 x5_2 1 x5_9 1 x5_10 >= 1 ;
1 ~x4_5 1 x0_1 1 x0_6 >= 1 ;
1 ~x4_5 1 x3_1 1 x3_6 >= 1 ;
1 ~x4_5 1 x5_1 1 x5_6 >= 1 ;
1 ~x4_6 1 x0_1 1 x0_5 1 x0_8 1 x0_11 1 x0_12 >= 1 ;
1 ~x4_6 1 x3_1 1 x3_5 1 x3_8 1 x3_11 1 x3_12 >= 1 ;
1 ~x4_6 1 x5_1 1 x5_5 1 x5_8 1 x5_11 1 x5_12 >= 1 ;
1 ~x4_7 1 x0_1 1 x0_3 1 x0_8 >= 1 ;
1 ~x4_7 1 x3_1 1 x3_3 1 x3_8 >= 1 ;
1 ~x4_7 1 x5_1 1 x5_3 1 x5_8 >= 1 ;
1 ~x4_8 1 x0_2 1 x0_6 1 x0_7 1 x0_9 1 x0_10 1 x0_13 1 x0_14 1 x0_15 1 x0_17 1 x0_18 >= 1 ;
1 ~x4_8 1 x3_2 1 x3_6 1 x3_7 1 x3_9 1 x3_10 1 x3_13 1 x3_14 1 x3_15 1 x3_17 1 x3_18 >= 1 ;
1 ~x4_8 1 x5_2 1 x5_6 1 x5_7 1 x5_9 1 x5_10 1 x5_13 1 x5_14 1 x5_15 1 x5_17 1 x5_18 >= 1 ;
1 ~x4_9 1 x0_4 1 x0_8 >= 1 ;
1 ~x4_9 1 x3_4 1 x3_8 >= 1 ;
1 ~x4_9 1 x5_4 1 x5_8 >= 1 ;
1 ~x4_10 1 x0_4 1 x0_8 >= 1 ;
1 ~x4_10 1 x3_4 1 x3_8 >= 1 ;
1 ~x4_10 1 x5_4 1 x5_8 >= 1 ;
1 ~x4_11 1 x0_6 >= 1 ;
1 ~x4_11 1 x3_6 >= 1 ;
1 ~x4_11 1 x5_6 >= 1 ;
1 ~x4_12 1 x0_6 1 x0_13 1 x0_14 1 x0_15 1 x0_16 >= 1 ;
1 ~x4_12 1 x3_6 1 x3_13 1 x3_14 1 x3_15 1 x3_16 >= 1 ;
1 ~x4_12 1 x5_6 1 x5_13 1 x5_14 1 x5_15 1 x5_16 >= 1 ;
1 ~x4_13 1 x0_1 1 x0_8 1 x0_12 >= 1 ;
1 ~x4_13 1 x3_1 1 x3_8 1 x3_12 >= 1 ;
1 ~x4_13 1 x5_1 1 x5_8 1 x5_12 >= 1 ;
1 ~x4_14 1 x0_8 1 x0_12 1 x0_17 >= 1 ;
1 ~x4_14 1 x3_8 1 x3_12 1 x3_17 >= 1 ;
1 ~x4_14 1 x5_8 1 x5_12 1 x5_17 >= 1 ;
1 ~x4_15 1 x0_8 1 x0_12 1 x0_16 1 x0_17 >= 1 ;
1 ~x4_15 1 x3_8 1 x3_12 1 x3_16 1 x3_17 >= 1 ;
1 ~x4_15 1 x5_8 1 x5_12 1 x5_16 1 x5_17 >= 1 ;
1 ~x4_16 1 x0_12 1 x0_15 1 x0_17 >= 1 ;
1 ~x4_16 1 x3_12 1 x3_15 1 x3_17 >= 1 ;
1 ~x4_16 1 x5_12 1 x5_15 1 x5_17 >= 1 ;
1 ~x4_17 1 x0_8 1 x0_14 1 x0_15 1 x0_16 >= 1 ;
1 ~x4_17 1 x3_8 1 x3_14 1 x3_15 1 x3_16 >= 1 ;
1 ~x4_17 1 x5_8 1 x5_14 1 x5_15 1 x5_16 >= 1 ;
1 ~x4_18 1 x0_8 >= 1 ;
1 ~x4_18 1 x3_8 >= 1 ;
1 ~x4_18 1 x5_8 >= 1 ;
1 ~x5_0 1 x0_1 >= 1 ;
1 ~x5_0 1 x4_1 >= 1 ;
1 ~x5_0 1 x6_1 >= 1 ;
1 ~x5_1 1 x0_0 1 x0_2 1 x0_3 1 x0_5 1 x0_6 1 x0_7 1 x0_13 >= 1 ;
1 ~x5_1 1 x4_0 1 x4_2 1 x4_3 1 x4_5 1 x4_6 1 x4_7 1 x4_13 >= 1 ;
1 ~x5_1 1 x6_0 1 x6_2 1 x6_3 1 x6_5 1 x6_6 1 x6_7 1 x6_13 >= 1 ;
1 ~x5_2 1 x0_1 1 x0_3 1 x0_4 1 x0_8 >= 1 ;
1 ~x5_2 1 x4_1 1 x4_3 1 x4_4 1 x4_8 >= 1 ;
1 ~x5_2 1 x6_1 1 x6_3 1 x6_4 1 x6_8 >= 1 ;
1 ~x5_3 1 x0_1 1 x0_2 1 x0_7 >= 1 ;
1 ~x5_3 1 x4_1 1 x4_2 1 x4_7 >= 1 ;
1 ~x5_3 1 x6_1 1 x6_2 1 x6_7 >= 1 ;
1 ~x5_4 1 x0_2 1 x0_9 1 x0_10 >= 1 ;
1 ~x5_4 1 x4_2 1 x4_9 1 x4_10 >= 1 ;
1 ~x5_4 1 x6_2 1 x6_9 1 x6_10 >= 1 ;
1 ~x5_5 1 x0_1 1 x0_6 >= 1 ;
1 ~x5_5 1 x4_1 1 x4_6 >= 1 ;
1 ~x5_5 1 x6_1 1 x6_6 >= 1 ;
1 ~x5_6 1 x0_1 1 x0_5 1 x0_8 1 x0_11 1 x0_12 >= 1 ;
1 ~x5_6 1 x4_1 1 x4_5 1 x4_8 1 x4_11 1 x4_12 >= 1 ;
1 ~x5_6 1 x6_1 1 x6_5 1 x6_8 1 x6_11 1 x6_12 >= 1 ;
1 ~x5_7 1 x0_1 1 x0_3 1 x0_8 >= 1 ;
1 ~x5_7 1 x4_1 1 x4_3 1 x4_8 >= 1 ;
1 ~x5_7 1 x6_1 1 x6_3 1 x6_8 >= 1 ;
1 ~x5_8 1 x0_2 1 x0_6 1 x0_7 1 x0_9 1 x0_10 1 x0_13 1 x0_14 1 x0_15 1 x0_17 1 x0_18 >= 1 ;
1 ~x5_8 1 x4_2 1 x4_6 1 x4_7 1 x4_9 1 x4_10 1 x4_13 1 x4_14 1 x4_15 1 x4_17 1 x4_18 >= 1 ;
1 ~x5_8 1 x6_2 1 x6_6 1 x6_7 1 x6_9 1 x6_10 1 x6_13 1 x6_14 1 x6_15 1 x6_17 1 x6_18 >= 1 ;
1 ~x5_9 1 x0_4 1 x0_8 >= 1 ;
1 ~x5_9 1 x4_4 1 x4_8 >= 1 ;
1 ~x5_9 1 x6_4 1 x6_8 >= 1 ;
1 ~x5_10 1 x0_4 1 x0_8 >= 1 ;
1 ~x5_10 1 x4_4 1 x4_8 >= 1 ;
1 ~x5_10 1 x6_4 1 x6_8 >= 1 ;
1 ~x5_11 1 x0_6 >= 1 ;
1 ~x5_11 1 x4_6 >= 1 ;
1 ~x5_11 1 x6_6 >= 1 ;
1 ~x5_12 1 x0_6 1 x0_13 1 x0_14 1 x0_15 1 x0_16 >= 1 ;
1 ~x5_12 1 x4_6 1 x4_13 1 x4_14 1 x4_15 1 x4_16 >= 1 ;
1 ~x5_12 1 x6_6 1 x6_13 1 x6_14 1 x6_15 1 x6_16 >= 1 ;
1 ~x5_13 1 x0_1 1 x0_8 1 x0_12 >= 1 ;
1 ~x5_13 1 x4_1 1 x4_8 1 x4_12 >= 1 ;
1 ~x5_13 1 x6_1 1 x6_8 1 x6_12 >= 1 ;
1 ~x5_14 1 x0_8 1 x0_12 1 x0_17 >= 1 ;
1 ~x5_14 1 x4_8 1 x4_12 1 x4_17 >= 1 ;
1 ~x5_14 1 x6_8 1 x6_12 1 x6_17 >= 1 ;
1 ~x5_15 1 x0_8 1 x0_12 1 x0_16 1 x0_17 >= 1 ;
1 ~x5_15 1 x4_8 1 x4_12 1 x4_16 1 x4_17 >= 1 ;
1 ~x5_15 1 x6_8 1 x6_12 1 x6_16 1 x6_17 >= 1 ;
1 ~x5_16 1 x0_12 1 x0_15 1 x0_17 >= 1 ;
1 ~x5_16 1 x4_12 1 x4_15 1 x4_17 >= 1 ;
1 ~x5_16 1 x6_12 1 x6_15 1 x6_17 >= 1 ;
1 ~x5_17 1 x0_8 1 x0_14 1 x0_15 1 x0_16 >= 1 ;
1 ~x5_17 1 x4_8 1 x4_14 1 x4_15 1 x4_16 >= 1 ;
1 ~x5_17 1 x6_8 1 x6_14 1 x6_15 1 x6_16 >= 1 ;
1 ~x5_18 1 x0_8 >= 1 ;
1 ~x5_18 1 x4_8 >= 1 ;
1 ~x5_18 1 x6_8 >= 1 ;
1 ~x6_0 1 x0_1 >= 1 ;
1 ~x6_0 1 x5_1 >= 1 ;
1 ~x6_0 1 x7_1 >= 1 ;
1 ~x6_1 1 x0_0 1 x0_2 1 x0_3 1 x0_5 1 x0_6 1 x0_7 1 x0_13 >= 1 ;
1 ~x6_1 1 x5_0 1 x5_2 1 x5_3 1 x5_5 1 x5_6 1 x5_7 1 x5_13 >= 1 ;
1 ~x6_1 1 x7_0 1 x7_2 1 x7_3 1 x7_5 1 x7_6 1 x7_7 1 x7_13 >= 1 ;
1 ~x6_2 1 x0_1 1 x0_3 1 x0_4 1 x0_8 >= 1 ;
1 ~x6_2 1 x5_1 1 x5_3 1 x5_4 1 x5_8 >= 1 ;
1 ~x6_2 1 x7_1 1 x7_3 1 x7_4 1 x7_8 >= 1 ;
1 ~x6_3 1 x0_1 1 x0_2 1 x0_7 >= 1 ;
1 ~x6_3 1 x5_1 1 x5_2 1 x5_7 >= 1 ;
1 ~x6_3 1 x7_1 1 x7_2 1 x7_7 >= 1 ;
1 ~x6_4 1 x0_2 1 x0_9 1 x0_10 >= 1 ;
1 ~x6_4 1 x5_2 1 x5_9 1 x5_10 >= 1 ;
1 ~x6_4 1 x7_2 1 x7_9 1 x7_10 >= 1 ;
1 ~x6_5 1 x0_1 1 x0_6 >= 1 ;
1 ~x6_5 1 x5_1 1 x5_6 >= 1 ;
1 ~x6_5 1 x7_1 1 x7_6 >= 1 ;
1 ~x6_6 1 x0_1 1 x0_5 1 x0_8 1 x0_11 1 x0_12 >= 1 ;
1 ~x6_6 1 x5_1 1 x5_5 1 x5_8 1 x5_11 1 x5_12 >= 1 ;
1 ~x6_6 1 x7_1 1 x7_5 1 x7_8 1 x7_11 1 x7_12 >= 1 ;
1 ~x6_7 1 x0_1 1 x0_3 1 x0_8 >= 1 ;
1 ~x6_7 1 x5_1 1 x5_3 1 x5_8 >= 1 ;
1 ~x6_7 1 x7_1 1 x7_3 1 x7_8 >= 1 ;
1 ~x6_8 1 x0_2 1 x0_6 1 x0_7 1 x0_9 1 x0_10 1 x0_13 1 x0_14 1 x0_15 1 x0_17 1 x0_18 >= 1 ;
1 ~x6_8 1 x5_2 1 x5_6 1 x5_7 1 x5_9 1 x5_10 1 x5_13 1 x5_14 1 x5_15 1 x5_17 1 x5_18 >= 1 ;
1 ~x6_8 1 x7_2 1 x7_6 1 x7_7 1 x7_9 1 x7_10 1 x7_13 1 x7_14 1 x7_15 1 x7_17 1 x7_18 >= 1 ;
1 ~x6_9 1 x0_4 1 x0_8 >= 1 ;
1 ~x6_9 1 x5_4 1 x5_8 >= 1 ;
1 ~x6_9 1 x7_4 1 x7_8 >= 1 ;
1 ~x6_10 1 x0_4 1 x0_8 >= 1 ;
1 ~x6_10 1 x5_4 1 x5_8 >= 1 ;
1 ~x6_10 1 x7_4 1 x7_8 >= 1 ;
1 ~x6_11 1 x0_6 >= 1 ;
1 ~x6_11 1 x5_6 >= 1 ;
1 ~x6_11 1 x7_6 >= 1 ;
1 ~x6_12 1 x0_6 1 x0_13 1 x0_14 1 x0_15 1 x0_16 >= 1 ;
1 ~x6_12 1 x5_6 1 x5_13 1 x5_14 1 x5_15 1 x5_16 >= 1 ;
1 ~x6_12 1 x7_6 1 x7_13 1 x7_14 1 x7_15 1 x7_16 >= 1 ;
1 ~x6_13 1 x0_1 1 x0_8 1 x0_12 >= 1 ;
1 ~x6_13 1 x5_1 1 x5_8 1 x5_12 >= 1 ;
1 ~x6_13 1 x7_1 1 x7_8 1 x7_12 >= 1 ;
1 ~x6_14 1 x0_8 1 x0_12 1 x0_17 >= 1 ;
1 ~x6_14 1 x5_8 1 x5_12 1 x5_17 >= 1 ;
1 ~x6_14 1 x7_8 1 x7_12 1 x7_17 >= 1 ;
1 ~x6_15 1 x0_8 1 x0_12 1 x0_16 1 x0_17 >= 1 ;
1 ~x6_15 1 x5_8 1 x5_12 1 x5_16 1 x5_17 >= 1 ;
1 ~x6_15 1 x7_8 1 x7_12 1 x7_16 1 x7_17 >= 1 ;
1 ~x6_16 1 x0_12 1 x0_15 1 x0_17 >= 1 ;
1 ~x6_16 1 x5_12 1 x5_15 1 x5_17 >= 1 ;
1 ~x6_16 1 x7_12 1 x7_15 1 x7_17 >= 1 ;
1 ~x6_17 1 x0_8 1 x0_14 1 x0_15 1 x0_16 >= 1 ;
1 ~x6_17 1 x5_8 1 x5_14 1 x5_15 1 x5_16 >= 1 ;
1 ~x6_17 1 x7_8 1 x7_14 1 x7_15 1 x7_16 >= 1 ;
1 ~x6_18 1 x0_8 >= 1 ;
1 ~x6_18 1 x5_8 >= 1 ;
1 ~x6_18 1 x7_8 >= 1 ;
1 ~x7_0 1 x0_1 >= 1 ;
1 ~x7_0 1 x6_1 >= 1 ;
1 ~x7_0 1 x8_1 >= 1 ;
1 ~x7_1 1 x0_0 1 x0_2 1 x0_3 1 x0_5 1 x0_6 1 x0_7 1 x0_13 >= 1 ;
1 ~x7_1 1 x6_0 1 x6_2 1 x6_3 1 x6_5 1 x6_6 1 x6_7 1 x6_13 >= 1 ;
1 ~x7_1 1 x8_0 1 x8_2 1 x8_3 1 x8_5 1 x8_6 1 x8_7 1 x8_13 >= 1 ;
1 ~x7_2 1 x0_1 1 x0_3 1 x0_4 1 x0_8 >= 1 ;
1 ~x7_2 1 x6_1 1 x6_3 1 x6_4 1 x6_8 >= 1 ;
1 ~x7_2 1 x8_1 1 x8_3 1 x8_4 1 x8_8 >= 1 ;
1 ~x7_3 1 x0_1 1 x0_2 1 x0_7 >= 1 ;
1 ~x7_3 1 x6_1 1 x6_2 1 x6_7 >= 1 ;
1 ~x7_3 1 x8_1 1 x8_2 1 x8_7 >= 1 ;
1 ~x7_4 1 x0_2 1 x0_9 1 x0_10 >= 1 ;
1 ~x7_4 1 x6_2 1 x6_9 1 x6_10 >= 1 ;
1 ~x7_4 1 x8_2 1 x8_9 1 x8_10 >= 1 ;
1 ~x7_5 1 x0_1 1 x0_6 >= 1 ;
1 ~x7_5 1 x6_1 1 x6_6 >= 1 ;
1 ~x7_5 1 x8_1 1 x8_6 >= 1 ;
1 ~x7_6 1 x0_1 1 x0_5 1 x0_8 1 x0_11 1 x0_12 >= 1 ;
1 ~x7_6 1 x6_1 1 x6_5 1 x6_8 1 x6_11 1 x6_12 >= 1 ;
1 ~x7_6 1 x8_1 1 x8_5 1 x8_8 1 x8_11 1 x8_12 >= 1 ;
1 ~x7_7 1 x0_1 1 x0_3 1 x0_8 >= 1 ;
1 ~x7_7 1 x6_1 1 x6_3 1 x6_8 >= 1 ;
1 ~x7_7 1 x8_1 1 x8_3 1 x8_8 >= 1 ;
1 ~x7_8 1 x0_2 1 x0_6 1 x0_7 1 x0_9 1 x0_10 1 x0_13 1 x0_14 1 x0_15 1 x0_17 1 x0_18 >= 1 ;
1 ~x7_8 1 x6_2 1 x6_6 1 x6_7 1 x6_9 1 x6_10 1 x6_13 1 x6_14 1 x6_15 1 x6_17 1 x6_18 >= 1 ;
1 ~x7_8 1 x8_2 1 x8_6 1 x8_7 1 x8_9 1 x8_10 1 x8_13 1 x8_14 1 x8_15 1 x8_17 1 x8_18 >= 1 ;
1 ~x7_9 1 x0_4 1 x0_8 >= 1 ;
1 ~x7_9 1 x6_4 1 x6_8 >= 1 ;
1 ~x7_9 1 x8_4 1 x8_8 >= 1 ;
1 ~x7_10 1 x0_4 1 x0_8 >= 1 ;
1 ~x7_10 1 x6_4 1 x6_8 >= 1 ;
1 ~x7_10 1 x8_4 1 x8_8 >= 1 ;
1 ~x7_11 1 x0_6 >= 1 ;
1 ~x7_11 1 x6_6 >= 1 ;
1 ~x7_11 1 x8_6 >= 1 ;
1 ~x7_12 1 x0_6 1 x0_13 1 x0_14 1 x0_15 1 x0_16 >= 1 ;
1 ~x7_12 1 x6_6 1 x6_13 1 x6_14 1 x6_15 1 x6_16 >= 1 ;
1 ~x7_12 1 x8_6 1 x8_13 1 x8_14 1 x8_15 1 x8_16 >= 1 ;
1 ~x7_13 1 x0_1 1 x0_8 1 x0_12 >= 1 ;
1 ~x7_13 1 x6_1 1 x6_8 1 x6_12 >= 1 ;
1 ~x7_13 1 x8_1 1 x8_8 1 x8_12 >= 1 ;
1 ~x7_14 1 x0_8 1 x0_12 1 x0_17 >= 1 ;
1 ~x7_14 1 x6_8 1 x6_12 1 x6_17 >= 1 ;
1 ~x7_14 1 x8_8 1 x8_12 1 x8_17 >= 1 ;
1 ~x7_15 1 x0_8 1 x0_12 1 x0_16 1 x0_17 >= 1 ;
1 ~x7_15 1 x6_8 1 x6_12 1 x6_16 1 x6_17 >= 1 ;
1 ~x7_15 1 x8_8 1 x8_12 1 x8_16 1 x8_17 >= 1 ;
1 ~x7_16 1 x0_12 1 x0_15 1 x0_17 >= 1 ;
1 ~x7_16 1 x6_12 1 x6_15 1 x6_17 >= 1 ;
1 ~x7_16 1 x8_12 1 x8_15 1 x8_17 >= 1 ;
1 ~x7_17 1 x0_8 1 x0_14 1 x0_15 1 x0_16 >= 1 ;
1 ~x7_17 1 x6_8 1 x6_14 1 x6_15 1 x6_16 >= 1 ;
1 ~x7_17 1 x8_8 1 x8_14 1 x8_15 1 x8_16 >= 1 ;
1 ~x7_18 1 x0_8 >= 1 ;
1 ~x7_18 1 x6_8 >= 1 ;
1 ~x7_18 1 x8_8 >= 1 ;
1 ~x8_0 1 x0_1 >= 1 ;
1 ~x8_0 1 x7_1 >= 1 ;
1 ~x8_0 1 x9_1 >= 1 ;
1 ~x8_1 1 x0_0 1 x0_2 1 x0_3 1 x0_5 1 x0_6 1 x0_7 1 x0_13 >= 1 ;
1 ~x8_1 1 x7_0 1 x7_2 1 x7_3 1 x7_5 1 x7_6 1 x7_7 1 x7_13 >= 1 ;
1 ~x8_1 1 x9_0 1 x9_2 1 x9_3 1 x9_5 1 x9_6 1 x9_7 1 x9_13 >= 1 ;
1 ~x8_2 1 x0_1 1 x0_3 1 x0_4 1 x0_8 >= 1 ;
1 ~x8_2 1 x7_1 1 x7_3 1 x7_4 1 x7_8 >= 1 ;
1 ~x8_2 1 x9_1 1 x9_3 1 x9_4 1 x9_8 >= 1 ;
1 ~x8_3 1 x0_1 1 x0_2 1 x0_7 >= 1 ;
1 ~x8_3 1 x7_1 1 x7_2 1 x7_7 >= 1 ;
1 ~x8_3 1 x9_1 1 x9_2 1 x9_7 >= 1 ;
1 ~x8_4 1 x0_2 1 x0_9 1 x0_10 >= 1 ;
1 ~x8_4 1 x7_2 1 x7_9 1 x7_10 >= 1 ;
1 ~x8_4 1 x9_2 1 x9_9 1 x9_10 >= 1 ;
1 ~x8_5 1 x0_1 1 x0_6 >= 1 ;
1 ~x8_5 1 x7_1 1 x7_6 >= 1 ;
1 ~x8_5 1 x9_1 1 x9_6 >= 1 ;
1 ~x8_6 1 x0_1 1 x0_5 1 x0_8 1 x0_11 1 x0_12 >= 1 ;
1 ~x8_6 1 x7_1 1 x7_5 1 x7_8 1 x7_11 1 x7_12 >= 1 ;
1 ~x8_6 1 x9_1 1 x9_5 1 x9_8 1 x9_11 1 x9_12 >= 1 ;
1 ~x8_7 1 x0_1 1 x0_3 1 x0_8 >= 1 ;
1 ~x8_7 1 x7_1 1 x7_3 1 x7_8 >= 1 ;
1 ~x8_7 1 x9_1 1 x9_3 1 x9_8 >= 1 ;
1 ~x8_8 1 x0_2 1 x0_6 1 x0_7 1 x0_9 1 x0_10 1 x0_13 1 x0_14 1 x0_15 1 x0_17 1 x0_18 >= 1 ;
1 ~x8_8 1 x7_2 1 x7_6 1 x7_7 1 x7_9 1 x7_10 1 x7_13 1 x7_14 1 x7_15 1 x7_17 1 x7_18 >= 1 ;
1 ~x8_8 1 x9_2 1 x9_6 1 x9_7 1 x9_9 1 x9_10 1 x9_13 1 x9_14 1 x9_15 1 x9_17 1 x9_18 >= 1 ;
1 ~x8_9 1 x0_4 1 x0_8 >= 1 ;
1 ~x8_9 1 x7_4 1 x7_8 >= 1 ;
1 ~x8_9 1 x9_4 1 x9_8 >= 1 ;
1 ~x8_10 1 x0_4 1 x0_8 >= 1 ;
1 ~x8_10 1 x7_4 1 x7_8 >= 1 ;
1 ~x8_10 1 x9_4 1 x9_8 >= 1 ;
1 ~x8_11 1 x0_6 >= 1 ;
1 ~x8_11 1 x7_6 >= 1 ;
1 ~x8_11 1 x9_6 >= 1 ;
1 ~x8_12 1 x0_6 1 x0_13 1 x0_14 1 x0_15 1 x0_16 >= 1 ;
1 ~x8_12 1 x7_6 1 x7_13 1 x7_14 1 x7_15 1 x7_16 >= 1 ;
1 ~x8_12 1 x9_6 1 x9_13 1 x9_14 1 x9_15 1 x9_16 >= 1 ;
1 ~x8_13 1 x0_1 1 x0_8 1 x0_12 >= 1 ;
1 ~x8_13 1 x7_1 1 x7_8 1 x7_12 >= 1 ;
1 ~x8_13 1 x9_1 1 x9_8 1 x9_12 >= 1 ;
1 ~x8_14 1 x0_8 1 x0_12 1 x0_17 >= 1 ;
1 ~x8_14 1 x7_8 1 x7_12 1 x7_17 >= 1 ;
1 ~x8_14 1 x9_8 1 x9_12 1 x9_17 >= 1 ;
1 ~x8_15 1 x0_8 1 x0_12 1 x0_16 1 x0_17 >= 1 ;
1 ~x8_15 1 x7_8 1 x7_12 1 x7_16 1 x7_17 >= 1 ;
1 ~x8_15 1 x9_8 1 x9_12 1 x9_16 1 x9_17 >= 1 ;
1 ~x8_16 1 x0_12 1 x0_15 1 x0_17 >= 1 ;
1 ~x8_16 1 x7_12 1 x7_15 1 x7_17 >= 1 ;
1 ~x8_16 1 x9_12 1 x9_15 1 x9_17 >= 1 ;
1 ~x8_17 1 x0_8 1 x0_14 1 x0_15 1 x0_16 >= 1 ;
1 ~x8_17 1 x7_8 1 x7_14 1 x7_15 1 x7_16 >= 1 ;
1 ~x8_17 1 x9_8 1 x9_14 1 x9_15 1 x9_16 >= 1 ;
1 ~x8_18 1 x0_8 >= 1 ;
1 ~x8_18 1 x7_8 >= 1 ;
1 ~x8_18 1 x9_8 >= 1 ;
1 ~x9_0 1 x0_1 >= 1 ;
1 ~x9_0 1 x8_1 >= 1 ;
1 ~x9_0 1 x10_1 >= 1 ;
1 ~x9_1 1 x0_0 1 x0_2 1 x0_3 1 x0_5 1 x0_6 1 x0_7 1 x0_13 >= 1 ;
1 ~x9_1 1 x8_0 1 x8_2 1 x8_3 1 x8_5 1 x8_6 1 x8_7 1 x8_13 >= 1 ;
1 ~x9_1 1 x10_0 1 x10_2 1 x10_3 1 x10_5 1 x10_6 1 x10_7 1 x10_13 >= 1 ;
1 ~x9_2 1 x0_1 1 x0_3 1 x0_4 1 x0_8 >= 1 ;
1 ~x9_2 1 x8_1 1 x8_3 1 x8_4 1 x8_8 >= 1 ;
1 ~x9_2 1 x10_1 1 x10_3 1 x10_4 1 x10_8 >= 1 ;
1 ~x9_3 1 x0_1 1 x0_2 1 x0_7 >= 1 ;
1 ~x9_3 1 x8_1 1 x8_2 1 x8_7 >= 1 ;
1 ~x9_3 1 x10_1 1 x10_2 1 x10_7 >= 1 ;
1 ~x9_4 1 x0_2 1 x0_9 1 x0_10 >= 1 ;
1 ~x9_4 1 x8_2 1 x8_9 1 x8_10 >= 1 ;
1 ~x9_4 1 x10_2 1 x10_9 1 x10_10 >= 1 ;
1 ~x9_5 1 x0_1 1 x0_6 >= 1 ;
1 ~x9_5 1 x8_1 1 x8_6 >= 1 ;
1 ~x9_5 1 x10_1 1 x10_6 >= 1 ;
1 ~x9_6 1 x0_1 1 x0_5 1 x0_8 1 x0_11 1 x0_12 >= 1 ;
1 ~x9_6 1 x8_1 1 x8_5 1 x8_8 1 x8_11 1 x8_12 >= 1 ;
1 ~x9_6 1 x10_1 1 x10_5 1 x10_8 1 x10_11 1 x10_12 >= 1 ;
1 ~x9_7 1 x0_1 1 x0_3 1 x0_8 >= 1 ;
1 ~x9_7 1 x8_1 1 x8_3 1 x8_8 >= 1 ;
1 ~x9_7 1 x10_1 1 x10_3 1 x10_8 >= 1 ;
1 ~x9_8 1 x0_2 1 x0_6 1 x0_7 1 x0_9 1 x0_10 1 x0_13 1 x0_14 1 x0_15 1 x0_17 1 x0_18 >= 1 ;
1 ~x9_8 1 x8_2 1 x8_6 1 x8_7 1 x8_9 1 x8_10 1 x8_13 1 x8_14 1 x8_15 1 x8_17 1 x8_18 >= 1 ;
1 ~x9_8 1 x10_2 1 x10_6 1 x10_7 1 x10_9 1 x10_10 1 x10_13 1 x10_14 1 x10_15 1 x10_17 1 x10_18 >= 1 ;
1 ~x9_9 1 x0_4 1 x0_8 >= 1 ;
1 ~x9_9 1 x8_4 1 x8_8 >= 1 ;
1 ~x9_9 1 x10_4 1 x10_8 >= 1 ;
1 ~x9_10 1 x0_4 1 x0_8 >= 1 ;
1 ~x9_10 1 x8_4 1 x8_8 >= 1 ;
1 ~x9_10 1 x10_4 1 x10_8 >= 1 ;
1 ~x9_11 1 x0_6 >= 1 ;
1 ~x9_11 1 x8_6 >= 1 ;
1 ~x9_11 1 x10_6 >= 1 ;
1 ~x9_12 1 x0_6 1 x0_13 1 x0_14 1 x0_15 1 x0_16 >= 1 ;
1 ~x9_12 1 x8_6 1 x8_13 1 x8_14 1 x8_15 1 x8_16 >= 1 ;
1 ~x9_12 1 x10_6 1 x10_13 1 x10_14 1 x10_15 1 x10_16 >= 1 ;
1 ~x9_13 1 x0_1 1 x0_8 1 x0_12 >= 1 ;
1 ~x9_13 1 x8_1 1 x8_8 1 x8_12 >= 1 ;
1 ~x9_13 1 x10_1 1 x10_8 1 x10_12 >= 1 ;
1 ~x9_14 1 x0_8 1 x0_12 1 x0_17 >= 1 ;
1 ~x9_14 1 x8_8 1 x8_12 1 x8_17 >= 1 ;
1 ~x9_14 1 x10_8 1 x10_12 1 x10_17 >= 1 ;
1 ~x9_15 1 x0_8 1 x0_12 1 x0_16 1 x0_17 >= 1 ;
1 ~x9_15 1 x8_8 1 x8_12 1 x8_16 1 x8_17 >= 1 ;
1 ~x9_15 1 x10_8 1 x10_12 1 x10_16 1 x10_17 >= 1 ;
1 ~x9_16 1 x0_12 1 x0_15 1 x0_17 >= 1 ;
1 ~x9_16 1 x8_12 1 x8_15 1 x8_17 >= 1 ;
1 ~x9_16 1 x10_12 1 x10_15 1 x10_17 >= 1 ;
1 ~x9_17 1 x0_8 1 x0_14 1 x0_15 1 x0_16 >= 1 ;
1 ~x9_17 1 x8_8 1 x8_14 1 x8_15 1 x8_16 >= 1 ;
1 ~x9_17 1 x10_8 1 x10_14 1 x10_15 1 x10_16 >= 1 ;
1 ~x9_18 1 x0_8 >= 1 ;
1 ~x9_18 1 x8_8 >= 1 ;
1 ~x9_18 1 x10_8 >= 1 ;
1 ~x10_0 1 x0_1 >= 1 ;
1 ~x10_0 1 x1_1 >= 1 ;
1 ~x10_0 1 x9_1 >= 1 ;
1 ~x10_1 1 x0_0 1 x0_2 1 x0_3 1 x0_5 1 x0_6 1 x0_7 1 x0_13 >= 1 ;
1 ~x10_1 1 x1_0 1 x1_2 1 x1_3 1 x1_5 1 x1_6 1 x1_7 1 x1_13 >= 1 ;
1 ~x10_1 1 x9_0 1 x9_2 1 x9_3 1 x9_5 1 x9_6 1 x9_7 1 x9_13 >= 1 ;
1 ~x10_2 1 x0_1 1 x0_3 1 x0_4 1 x0_8 >= 1 ;
1 ~x10_2 1 x1_1 1 x1_3 1 x1_4 1 x1_8 >= 1 ;
1 ~x10_2 1 x9_1 1 x9_3 1 x9_4 1 x9_8 >= 1 ;
1 ~x10_3 1 x0_1 1 x0_2 1 x0_7 >= 1 ;
1 ~x10_3 1 x1_1 1 x1_2 1 x1_7 >= 1 ;
1 ~x10_3 1 x9_1 1 x9_2 1 x9_7 >= 1 ;
1 ~x10_4 1 x0_2 1 x0_9 1 x0_10 >= 1 ;
1 ~x10_4 1 x1_2 1 x1_9 1 x1_10 >= 1 ;
1 ~x10_4 1 x9_2 1 x9_9 1 x9_10 >= 1 ;
1 ~x10_5 1 x0_1 1 x0_6 >= 1 ;
1 ~x10_5 1 x1_1 1 x1_6 >= 1 ;
1 ~x10_5 1 x9_1 1 x9_6 >= 1 ;
1 ~x10_6 1 x0_1 1 x0_5 1 x0_8 1 x0_11 1 x0_12 >= 1 ;
1 ~x10_6 1 x1_1 1 x1_5 1 x1_8 1 x1_11 1 x1_12 >= 1 ;
1 ~x10_6 1 x9_1 1 x9_5 1 x9_8 1 x9_11 1 x9_12 >= 1 ;
1 ~x10_7 1 x0_1 1 x0_3 1 x0_8 >= 1 ;
1 ~x10_7 1 x1_1 1 x1_3 1 x1_8 >= 1 ;
1 ~x10_7 1 x9_1 1 x9_3 1 x9_8 >= 1 ;
1 ~x10_8 1 x0_2 1 x0_6 1 x0_7 1 x0_9 1 x0_10 1 x0_13 1 x0_14 1 x0_15 1 x0_17 1 x0_18 >= 1 ;
1 ~x10_8 1 x1_2 1 x1_6 1 x1_7 1 x1_9 1 x1_10 1 x1_13 1 x1_14 1 x1_15 1 x1_17 1 x1_18 >= 1 ;
1 ~x10_8 1 x9_2 1 x9_6 1 x9_7 1 x9_9 1 x9_10 1 x9_13 1 x9_14 1 x9_15 1 x9_17 1 x9_18 >= 1 ;
1 ~x10_9 1 x0_4 1 x0_8 >= 1 ;
1 ~x10_9 1 x1_4 1 x1_8 >= 1 ;
1 ~x10_9 1 x9_4 1 x9_8 >= 1 ;
1 ~x10_10 1 x0_4 1 x0_8 >= 1 ;
1 ~x10_10 1 x1_4 1 x1_8 >= 1 ;
1 ~x10_10 1 x9_4 1 x9_8 >= 1 ;
1 ~x10_11 1 x0_6 >= 1 ;
1 ~x10_11 1 x1_6 >= 1 ;
1 ~x10_11 1 x9_6 >= 1 ;
1 ~x10_12 1 x0_6 1 x0_13 1 x0_14 1 x0_15 1 x0_16 >= 1 ;
1 ~x10_12 1 x1_6 1 x1_13 1 x1_14 1 x1_15 1 x1_16 >= 1 ;
1 ~x10_12 1 x9_6 1 x9_13 1 x9_14 1 x9_15 1 x9_16 >= 1 ;
1 ~x10_13 1 x0_1 1 x0_8 1 x0_12 >= 1 ;
1 ~x10_13 1 x1_1 1 x1_8 1 x1_12 >= 1 ;
1 ~x10_13 1 x9_1 1 x9_8 1 x9_12 >= 1 ;
1 ~x10_14 1 x0_8 1 x0_12 1 x0_17 >= 1 ;
1 ~x10_14 1 x1_8 1 x1_12 1 x1_17 >= 1 ;
1 ~x10_14 1 x9_8 1 x9_12 1 x9_17 >= 1 ;
1 ~x10_15 1 x0_8 1 x0_12 1 x0_16 1 x0_17 >= 1 ;
1 ~x10_15 1 x1_8 1 x1_12 1 x1_16 1 x1_17 >= 1 ;
1 ~x10_15 1 x9_8 1 x9_12 1 x9_16 1 x9_17 >= 1 ;
1 ~x10_16 1 x0_12 1 x0_15 1 x0_17 >= 1 ;
1 ~x10_16 1 x1_12 1 x1_15 1 x1_17 >= 1 ;
1 ~x10_16 1 x9_12 1 x9_15 1 x9_17 >= 1 ;
1 ~x10_17 1 x0_8 1 x0_14 1 x0_15 1 x0_16 >= 1 ;
1 ~x10_17 1 x1_8 1 x1_14 1 x1_15 1 x1_16 >= 1 ;
1 ~x10_17 1 x9_8 1 x9_14 1 x9_15 1 x9_16 >= 1 ;
1 ~x10_18 1 x0_8 >= 1 ;
1 ~x10_18 1 x1_8 >= 1 ;
1 ~x10_18 1 x9_8 >= 1 ;
